0 0 0 0
0 1 0 1
0 2 0 0
0 3 0 2
0 4 0 2
0 5 0 7
0 6 0 2
0 7 0 9
0 8 0 11
0 9 0 9
0 10 0 11
0 11 0 12
0 12 0 15
0 13 0 12
0 14 0 13
0 15 0 23
0 16 0 20
0 17 0 20
0 18 0 15
0 19 0 21
0 20 0 14
0 21 0 11
0 22 0 27
0 23 0 14
0 24 0 23
0 25 0 23
0 26 0 24
0 27 0 23
0 28 0 15
0 29 0 33
0 30 0 37
0 31 0 13
0 32 0 25
0 33 0 38
0 34 0 25
0 35 0 37
0 36 0 31
0 37 0 30
0 38 0 47
0 39 0 42
0 40 0 29
0 41 0 33
0 42 0 24
0 43 0 32
0 44 0 52
0 45 0 42
0 46 0 44
0 47 0 48
0 48 0 47
0 49 0 36
0 50 0 50
0 51 0 40
0 52 0 50
0 53 0 59
0 54 0 48
0 55 0 55
0 56 0 65
0 57 0 34
0 58 0 67
0 59 0 72
0 60 0 50
0 61 0 80
